c colouring generated by benchmark framework
p edge 128 5198
v 1 62
v 2 32
v 3 37
v 4 60
v 5 5
v 6 31
v 7 17
v 8 7
v 9 10
v 10 61
v 11 3
v 12 23
v 13 40
v 14 33
v 15 14
v 16 28
v 17 8
v 18 25
v 19 39
v 20 49
v 21 4
v 22 1
v 23 13
v 24 21
v 25 67
v 26 9
v 27 63
v 28 38
v 29 70
v 30 52
v 31 21
v 32 16
v 33 22
v 34 49
v 35 18
v 36 56
v 37 8
v 38 71
v 39 0
v 40 68
v 41 55
v 42 27
v 43 34
v 44 33
v 45 23
v 46 57
v 47 44
v 48 6
v 49 2
v 50 1
v 51 25
v 52 8
v 53 53
v 54 66
v 55 9
v 56 3
v 57 29
v 58 19
v 59 69
v 60 45
v 61 29
v 62 20
v 63 51
v 64 42
v 65 31
v 66 10
v 67 36
v 68 15
v 69 27
v 70 68
v 71 22
v 72 17
v 73 30
v 74 3
v 75 26
v 76 5
v 77 32
v 78 70
v 79 47
v 80 69
v 81 0
v 82 9
v 83 59
v 84 48
v 85 67
v 86 2
v 87 58
v 88 41
v 89 58
v 90 1
v 91 65
v 92 14
v 93 43
v 94 60
v 95 0
v 96 37
v 97 13
v 98 53
v 99 24
v 100 6
v 101 66
v 102 4
v 103 19
v 104 7
v 105 56
v 106 1
v 107 12
v 108 51
v 109 2
v 110 73
v 111 46
v 112 45
v 113 44
v 114 35
v 115 18
v 116 54
v 117 64
v 118 4
v 119 61
v 120 27
v 121 60
v 122 25
v 123 11
v 124 11
v 125 45
v 126 16
v 127 28
v 128 50
